p cnf 150 225
1 88 0
1 92 0
1 46 0
2 144 0
2 35 0
2 76 0
3 126 0
3 96 0
3 61 0
4 143 0
4 91 0
4 129 0
5 93 0
5 82 0
5 8 0
6 52 0
6 23 0
6 20 0
7 136 0
7 54 0
7 80 0
8 93 0
8 38 0
9 77 0
9 124 0
9 25 0
10 132 0
10 65 0
10 141 0
11 147 0
11 102 0
11 114 0
12 55 0
12 93 0
12 69 0
13 146 0
13 99 0
13 126 0
14 87 0
14 124 0
14 36 0
15 40 0
15 132 0
15 150 0
16 40 0
16 42 0
16 139 0
17 115 0
17 49 0
17 76 0
18 42 0
18 75 0
18 24 0
19 45 0
19 109 0
19 58 0
20 135 0
20 104 0
21 28 0
21 84 0
21 38 0
22 74 0
22 68 0
22 27 0
23 132 0
23 71 0
24 26 0
24 130 0
25 72 0
25 133 0
26 50 0
26 108 0
27 95 0
27 94 0
28 120 0
28 137 0
29 121 0
29 112 0
29 53 0
30 92 0
30 135 0
30 90 0
31 67 0
31 128 0
31 117 0
32 34 0
32 85 0
32 78 0
33 37 0
33 122 0
33 46 0
34 85 0
34 148 0
35 75 0
35 117 0
36 83 0
36 64 0
37 124 0
37 133 0
38 56 0
39 66 0
39 125 0
39 123 0
40 74 0
41 142 0
41 118 0
41 66 0
42 48 0
43 56 0
43 150 0
43 53 0
44 107 0
44 81 0
44 139 0
45 141 0
45 86 0
46 146 0
47 92 0
47 119 0
47 79 0
48 65 0
48 140 0
49 104 0
49 111 0
50 119 0
50 60 0
51 149 0
51 83 0
51 63 0
52 97 0
52 90 0
53 129 0
54 150 0
54 109 0
55 103 0
55 121 0
56 69 0
57 147 0
57 70 0
57 113 0
58 91 0
58 118 0
59 97 0
59 119 0
59 139 0
60 81 0
60 63 0
61 62 0
61 125 0
62 117 0
62 85 0
63 83 0
64 122 0
64 94 0
65 123 0
66 67 0
67 98 0
68 77 0
68 109 0
69 136 0
70 89 0
70 105 0
71 95 0
71 141 0
72 101 0
72 142 0
73 100 0
73 110 0
73 79 0
74 80 0
75 136 0
76 128 0
77 102 0
78 138 0
78 115 0
79 112 0
80 95 0
81 89 0
82 148 0
82 108 0
84 96 0
84 99 0
86 115 0
86 134 0
87 140 0
87 94 0
88 106 0
88 129 0
89 106 0
90 145 0
91 137 0
96 131 0
97 126 0
98 120 0
98 127 0
99 101 0
100 145 0
100 104 0
101 118 0
102 111 0
103 113 0
103 140 0
105 125 0
105 130 0
106 107 0
107 114 0
108 116 0
110 149 0
110 133 0
111 127 0
112 128 0
113 137 0
114 134 0
116 138 0
116 120 0
121 122 0
123 149 0
127 130 0
131 138 0
131 144 0
134 147 0
135 148 0
142 145 0
143 144 0
143 146 0
g -91